(set-info :Origin "This instance was generated by: BanditFuzz-- an RL fuzzer for SMT solvers" )
(set-info :Author "Joe Scott, Fed Mora, Vijay Ganesh" )
(set-info :Contact "Joe Scott, joseph.scott@uwaterloo.ca")
; solvers/z3.sh
; 	time => 0.04782223701477051
; 	answer => err
; solvers/cvc4.sh
; 	time => 0.05176687240600586
; 	answer => err
(set-logic QF_NIA)
(declare-const bool_0 Bool)
(declare-const bool_1 Bool)
(declare-const bool_2 Bool)
(declare-const bool_3 Bool)
(declare-const bool_4 Bool)
(declare-const int_0 Int)
(declare-const int_1 Int)
(declare-const int_2 Int)
(declare-const int_3 Int)
(declare-const int_4 Int)
(assert (not (>= (+ int_3 (- 849936266)) (/ int_3 int_4))))
(assert (xor (<= (* 303806321 (- 544819984)) (* (- 280841704) 962519557)) (not (xor bool_2 false))))
(assert (xor (> (mod int_0 int_3) (- int_1 (- 508021255))) (>= (- 632112535) (* 466834255 (- 670836868)))))
(assert (=> (=> (and false bool_2) (or true false)) (=> (xor true bool_1) (=> false true))))
(assert (or (>= (+ 858296195 (- 720097519)) (- int_3 int_4)) (<= (+ int_2 289255454) (/ 693620967 (- 358750980)))))
(check-sat)
(exit)
